80 8
1638
1638
2340
936
2106
2106
702
2340
468
936
2340
1170
2106
234
2340
1638
2340
2340
2340
2340
702
702
2106
1170
1638
2106
1872
234
468
936
702
702
234
1872
702
234
1404
1404
1404
2106
1872
468
1872
234
702
1872
1872
1638
1404
2106
2340
1170
2106
936
1872
1872
1638
1170
1170
1170
1638
936
2340
1404
936
234
1404
1872
234
468
1872
234
2340
702
1872
468
1872
1872
936
1638
10845
9379
4970
7048
16363
16330
11167
35750
